NAME : XML100_1215_03
DIMENSION : 101
NB_CLUSTERS : 3
CLUSTERING_ALG : KMedoids
CLUSTERING_PARAMS : k(2)
CLUSTERS
1 0
2 3 5 6 8 9 12 13 18 22 23 25 26 30 32 33 35 36 38 44 47 49 53 56 57 59 60 62 63 65 70 71 72 73 74 78 79 80 81 83 85 86 87 90 91 93 94
3 1 2 4 7 10 11 14 15 16 17 19 20 21 24 27 28 29 31 34 37 39 40 41 42 43 45 46 48 50 51 52 54 55 58 61 64 66 67 68 69 75 76 77 82 84 88 89 92 95 96 97 98 99 100
EOF